NAME 
ROWS
 N  OBJ
 L  R0      
 L  R1      
 L  R2      
 E  R3      
 E  R4      
 E  R5      
 E  R6      
 E  R7      
 E  R8      
 E  R9      
 E  R10     
 E  R11     
 E  R12     
 E  R13     
 E  R14     
 E  R15     
 E  R16     
 E  R17     
 E  R18     
 E  R19     
 E  R20     
 E  R21     
 E  R22     
COLUMNS
    MARKER    'MARKER'                 'INTORG'
    I0(10)    OBJ       -16
    I0(10)    R0        147
    I0(10)    R1        -199
    I0(10)    R2        -179
    I0(10)    R3        10
    I0(10)    R4        2
    I0(10)    R6        12
    I0(10)    R8        5
    I0(10)    R9        11
    I0(10)    R10       9
    I0(10)    R22       1
    I1(11)    OBJ       157
    I1(11)    R0        23
    I1(11)    R1        50
    I1(11)    R2        -148
    I1(11)    R3        19
    I1(11)    R4        15
    I1(11)    R5        -1
    I1(11)    R7        7
    I1(11)    R8        18
    I1(11)    R9        14
    I1(11)    R10       7
    I1(11)    R22       1
    I2(10)    OBJ       123
    I2(10)    R0        -196
    I2(10)    R1        -198
    I2(10)    R2        -115
    I2(10)    R4        6
    I2(10)    R5        1
    I2(10)    R6        -1
    I2(10)    R7        8
    I2(10)    R8        7
    I2(10)    R9        18
    I2(10)    R22       1
    I3(11)    OBJ       108
    I3(11)    R0        -49
    I3(11)    R1        90
    I3(11)    R2        -107
    I3(11)    R3        6
    I3(11)    R5        5
    I3(11)    R6        18
    I3(11)    R7        17
    I3(11)    R8        16
    I3(11)    R9        7
    I3(11)    R10       9
    I3(11)    R22       1
    I4(10)    OBJ       46
    I4(10)    R0        -71
    I4(10)    R1        -31
    I4(10)    R2        26
    I4(10)    R4        6
    I4(10)    R5        13
    I4(10)    R6        14
    I4(10)    R7        18
    I4(10)    R8        4
    I4(10)    R9        7
    I4(10)    R22       1
    I5(10)    OBJ       115
    I5(10)    R0        191
    I5(10)    R1        -200
    I5(10)    R2        -35
    I5(10)    R4        11
    I5(10)    R5        12
    I5(10)    R6        11
    I5(10)    R7        4
    I5(10)    R8        1
    I5(10)    R9        3
    I5(10)    R22       1
    I6(10)    OBJ       90
    I6(10)    R0        40
    I6(10)    R1        69
    I6(10)    R2        -192
    I6(10)    R3        11
    I6(10)    R4        6
    I6(10)    R6        15
    I6(10)    R8        17
    I6(10)    R9        2
    I6(10)    R10       16
    I6(10)    R22       1
    I7(11)    OBJ       -140
    I7(11)    R0        -168
    I7(11)    R1        -16
    I7(11)    R2        -122
    I7(11)    R3        15
    I7(11)    R4        10
    I7(11)    R5        17
    I7(11)    R6        11
    I7(11)    R7        -1
    I7(11)    R8        17
    I7(11)    R9        15
    I7(11)    R22       1
    MARKER    'MARKER'                 'INTEND'
    C8(21)    OBJ       5
    C8(21)    R0        5
    C8(21)    R1        -3
    C8(21)    R2        -2
    C8(21)    R3        19
    C8(21)    R4        10
    C8(21)    R5        9
    C8(21)    R7        11
    C8(21)    R8        19
    C8(21)    R9        10
    C8(21)    R10       3
    C8(21)    R11       19
    C8(21)    R12       1
    C8(21)    R13       -1
    C8(21)    R14       12
    C8(21)    R15       17
    C8(21)    R16       2
    C8(21)    R17       4
    C8(21)    R18       9
    C8(21)    R19       1
    C8(21)    R20       2
    C8(21)    R21       5
    C9(17)    OBJ       1
    C9(17)    R1        -5
    C9(17)    R2        -4
    C9(17)    R3        18
    C9(17)    R4        15
    C9(17)    R5        8
    C9(17)    R6        4
    C9(17)    R7        16
    C9(17)    R8        6
    C9(17)    R9        1
    C9(17)    R10       9
    C9(17)    R12       18
    C9(17)    R13       5
    C9(17)    R14       9
    C9(17)    R16       17
    C9(17)    R18       15
    C9(17)    R20       16
    C9(17)    R21       16
    C10(17)   OBJ       6
    C10(17)   R0        2
    C10(17)   R1        7
    C10(17)   R2        1
    C10(17)   R4        9
    C10(17)   R5        4
    C10(17)   R6        12
    C10(17)   R7        15
    C10(17)   R8        16
    C10(17)   R10       6
    C10(17)   R13       15
    C10(17)   R14       3
    C10(17)   R15       16
    C10(17)   R16       4
    C10(17)   R17       11
    C10(17)   R18       7
    C10(17)   R19       14
    C10(17)   R21       5
    C11(17)   OBJ       -1
    C11(17)   R0        4
    C11(17)   R1        3
    C11(17)   R2        -4
    C11(17)   R4        9
    C11(17)   R5        5
    C11(17)   R6        10
    C11(17)   R7        17
    C11(17)   R8        18
    C11(17)   R10       16
    C11(17)   R11       17
    C11(17)   R13       4
    C11(17)   R14       8
    C11(17)   R15       14
    C11(17)   R16       7
    C11(17)   R19       13
    C11(17)   R20       7
    C11(17)   R21       3
    C12(19)   R0        8
    C12(19)   R1        -3
    C12(19)   R2        1
    C12(19)   R3        6
    C12(19)   R4        11
    C12(19)   R6        9
    C12(19)   R7        6
    C12(19)   R8        4
    C12(19)   R10       11
    C12(19)   R11       7
    C12(19)   R12       2
    C12(19)   R13       9
    C12(19)   R14       6
    C12(19)   R15       4
    C12(19)   R16       16
    C12(19)   R18       3
    C12(19)   R19       -1
    C12(19)   R20       17
    C12(19)   R21       3
    C13(18)   OBJ       -4
    C13(18)   R0        7
    C13(18)   R1        1
    C13(18)   R2        -10
    C13(18)   R3        18
    C13(18)   R4        3
    C13(18)   R5        -1
    C13(18)   R7        4
    C13(18)   R8        2
    C13(18)   R9        14
    C13(18)   R10       12
    C13(18)   R11       10
    C13(18)   R13       2
    C13(18)   R16       6
    C13(18)   R17       -1
    C13(18)   R18       17
    C13(18)   R19       1
    C13(18)   R20       10
    C13(18)   R21       7
    C14(16)   OBJ       -1
    C14(16)   R0        2
    C14(16)   R1        -7
    C14(16)   R2        -2
    C14(16)   R4        14
    C14(16)   R5        4
    C14(16)   R6        8
    C14(16)   R7        15
    C14(16)   R8        3
    C14(16)   R10       2
    C14(16)   R11       1
    C14(16)   R12       11
    C14(16)   R15       7
    C14(16)   R18       14
    C14(16)   R19       13
    C14(16)   R20       2
    C14(16)   R21       5
    C15(17)   OBJ       -4
    C15(17)   R1        5
    C15(17)   R2        -5
    C15(17)   R4        13
    C15(17)   R6        15
    C15(17)   R7        2
    C15(17)   R8        6
    C15(17)   R9        13
    C15(17)   R10       18
    C15(17)   R11       2
    C15(17)   R13       6
    C15(17)   R14       7
    C15(17)   R15       5
    C15(17)   R16       5
    C15(17)   R17       1
    C15(17)   R18       16
    C15(17)   R19       12
    C15(17)   R20       18
    C16(19)   OBJ       -5
    C16(19)   R0        -2
    C16(19)   R1        6
    C16(19)   R3        8
    C16(19)   R4        16
    C16(19)   R5        8
    C16(19)   R6        5
    C16(19)   R8        10
    C16(19)   R9        1
    C16(19)   R10       1
    C16(19)   R11       10
    C16(19)   R12       12
    C16(19)   R13       10
    C16(19)   R14       9
    C16(19)   R15       2
    C16(19)   R16       12
    C16(19)   R17       11
    C16(19)   R18       9
    C16(19)   R20       -1
    C16(19)   R21       6
    C17(17)   OBJ       -9
    C17(17)   R0        3
    C17(17)   R1        7
    C17(17)   R2        -10
    C17(17)   R3        3
    C17(17)   R4        13
    C17(17)   R5        5
    C17(17)   R6        19
    C17(17)   R7        17
    C17(17)   R8        10
    C17(17)   R11       18
    C17(17)   R12       -1
    C17(17)   R13       12
    C17(17)   R14       14
    C17(17)   R15       4
    C17(17)   R17       16
    C17(17)   R18       5
    C17(17)   R19       18
    C18(19)   OBJ       9
    C18(19)   R0        4
    C18(19)   R1        -2
    C18(19)   R2        -1
    C18(19)   R3        9
    C18(19)   R4        13
    C18(19)   R5        13
    C18(19)   R6        3
    C18(19)   R7        4
    C18(19)   R9        11
    C18(19)   R10       14
    C18(19)   R12       17
    C18(19)   R13       6
    C18(19)   R14       19
    C18(19)   R15       12
    C18(19)   R16       9
    C18(19)   R17       18
    C18(19)   R18       14
    C18(19)   R19       17
    C18(19)   R20       7
    C19(17)   OBJ       -1
    C19(17)   R0        6
    C19(17)   R1        -10
    C19(17)   R2        5
    C19(17)   R4        5
    C19(17)   R6        12
    C19(17)   R7        13
    C19(17)   R9        17
    C19(17)   R10       14
    C19(17)   R11       -1
    C19(17)   R12       3
    C19(17)   R14       1
    C19(17)   R15       1
    C19(17)   R16       19
    C19(17)   R17       -1
    C19(17)   R18       10
    C19(17)   R19       9
    C19(17)   R21       12
    C20(1)    R3        1
    C21(1)    R4        1
    C22(1)    R5        1
    C23(1)    R6        1
    C24(1)    R7        1
    C25(1)    R8        1
    C26(1)    R9        1
    C27(1)    R10       1
    C28(1)    R11       1
    C29(1)    R12       1
    C30(1)    R13       1
    C31(1)    R14       1
    C32(1)    R15       1
    C33(1)    R16       1
    C34(1)    R17       1
    C35(1)    R18       1
    C36(1)    R19       1
    C37(1)    R20       1
    C38(1)    R21       1
    C39(1)    R22       1
RHS
    RHS1      R0        -2.5000813008130081e+01
    RHS1      R1        -1.8075712451861361e+02
    RHS1      R2        -3.1702888318356867e+02
    RHS1      R3        80
    RHS1      R4        98
    RHS1      R5        86
    RHS1      R6        77
    RHS1      R7        97
    RHS1      R8        97
    RHS1      R9        91
    RHS1      R10       61
    RHS1      R11       55
    RHS1      R12       95
    RHS1      R13       88
    RHS1      R14       95
    RHS1      R15       99
    RHS1      R16       73
    RHS1      R17       79
    RHS1      R18       59
    RHS1      R19       66
    RHS1      R20       87
    RHS1      R21       62
    RHS1      R22       2
BOUNDS
 UP BND1      I0(10)    1
 UP BND1      I1(11)    1
 UP BND1      I2(10)    1
 UP BND1      I3(11)    1
 UP BND1      I4(10)    1
 UP BND1      I5(10)    1
 UP BND1      I6(10)    1
 UP BND1      I7(11)    1
ENDATA
